COURSE1 = {HUM4145, HUM4147, MAT4145, PHY4141, CSE4105, CSE4107, HUM4142, PHY4142, CSE4108, CSE4104, '-------'};
DAILYPERIODS1 = [1, 1, 1, 1, 1, 1, 1, 2, 2, 2, 3];
TOTALPERIODS1 = [2, 2, 2, 2, 2, 2, 2, 2, 2, 2, 10];

COURSE2 = {MAT4341, EEE4383, CSE4301, CSE4303, CSE4305, CSE4307, EEE4384, CSE4302, CSE4304, CSE4308, '======='};
DAILYPERIODS2 = [1, 1, 1, 1, 1, 1, 2, 2, 2, 2, 3];
TOTALPERIODS2 = [2, 2, 2, 2, 2, 2, 2, 2, 2, 2, 10];

COURSE3 = {CSE4501, CSE4503, CSE4511, CSE4513, MAT4541, CSE4539, CSE4502, CSE4508, CSE4504, CSE4551, '-=-=-=-'};
DAILYPERIODS3 = [1, 1, 1, 1, 1, 1, 2, 2, 2, 2, 3];
TOTALPERIODS3 = [2, 2, 2, 2, 2, 2, 2, 2, 2, 2, 10];

COURSE4 = {HUM4741, MAT4741, CSE4703, CSE4709, CSE4739, CSE4733, CSE4710, CSE4734, CSE4700, '=-=-=-='};
DAILYPERIODS4 = [1, 1, 1, 1, 1, 1, 2, 2, 2, 3];
TOTALPERIODS4 = [2, 2, 2, 2, 2, 2, 2, 2, 2, 12];

PERIODS = {PERIOD1, PERIOD2, PERIOD3, PERIOD4, PERIOD5, PERIOD6};
NUMROOM = 7;

DAYS = {MON, TUE, WED, THU, FRI};
